% clingo representation of a Flatland environment
% height: 20, width: 15, agents: 2

global(34).

train(0). start(0,(5,5),1,w). end(0,(16,5),31). speed(0,1).

train(1). start(1,(15,5),2,w). end(1,(6,5),32). speed(1,1).

cell((0,0), 0).
cell((0,1), 0).
cell((0,2), 0).
cell((0,3), 0).
cell((0,4), 0).
cell((0,5), 0).
cell((0,6), 0).
cell((0,7), 0).
cell((0,8), 0).
cell((0,9), 0).
cell((0,10), 0).
cell((0,11), 0).
cell((0,12), 0).
cell((0,13), 0).
cell((0,14), 0).

cell((1,0), 0).
cell((1,1), 0).
cell((1,2), 0).
cell((1,3), 0).
cell((1,4), 0).
cell((1,5), 0).
cell((1,6), 0).
cell((1,7), 0).
cell((1,8), 0).
cell((1,9), 0).
cell((1,10), 0).
cell((1,11), 0).
cell((1,12), 0).
cell((1,13), 0).
cell((1,14), 0).

cell((2,0), 0).
cell((2,1), 0).
cell((2,2), 0).
cell((2,3), 0).
cell((2,4), 0).
cell((2,5), 0).
cell((2,6), 0).
cell((2,7), 0).
cell((2,8), 0).
cell((2,9), 0).
cell((2,10), 0).
cell((2,11), 0).
cell((2,12), 0).
cell((2,13), 0).
cell((2,14), 0).

cell((3,0), 0).
cell((3,1), 0).
cell((3,2), 0).
cell((3,3), 0).
cell((3,4), 0).
cell((3,5), 0).
cell((3,6), 0).
cell((3,7), 0).
cell((3,8), 0).
cell((3,9), 0).
cell((3,10), 0).
cell((3,11), 0).
cell((3,12), 0).
cell((3,13), 0).
cell((3,14), 0).

cell((4,0), 0).
cell((4,1), 0).
cell((4,2), 0).
cell((4,3), 0).
cell((4,4), 0).
cell((4,5), 0).
cell((4,6), 0).
cell((4,7), 0).
cell((4,8), 0).
cell((4,9), 0).
cell((4,10), 0).
cell((4,11), 0).
cell((4,12), 0).
cell((4,13), 0).
cell((4,14), 0).

cell((5,0), 16386).
cell((5,1), 17411).
cell((5,2), 1025).
cell((5,3), 5633).
cell((5,4), 17411).
cell((5,5), 1025).
cell((5,6), 5633).
cell((5,7), 17411).
cell((5,8), 1025).
cell((5,9), 5633).
cell((5,10), 4608).
cell((5,11), 0).
cell((5,12), 0).
cell((5,13), 0).
cell((5,14), 0).

cell((6,0), 32800).
cell((6,1), 32800).
cell((6,2), 0).
cell((6,3), 72).
cell((6,4), 3089).
cell((6,5), 1025).
cell((6,6), 1097).
cell((6,7), 2064).
cell((6,8), 0).
cell((6,9), 32800).
cell((6,10), 32800).
cell((6,11), 0).
cell((6,12), 0).
cell((6,13), 0).
cell((6,14), 0).

cell((7,0), 32800).
cell((7,1), 32800).
cell((7,2), 0).
cell((7,3), 0).
cell((7,4), 0).
cell((7,5), 0).
cell((7,6), 0).
cell((7,7), 0).
cell((7,8), 0).
cell((7,9), 32800).
cell((7,10), 32800).
cell((7,11), 0).
cell((7,12), 0).
cell((7,13), 0).
cell((7,14), 0).

cell((8,0), 32800).
cell((8,1), 32800).
cell((8,2), 0).
cell((8,3), 0).
cell((8,4), 0).
cell((8,5), 0).
cell((8,6), 0).
cell((8,7), 0).
cell((8,8), 0).
cell((8,9), 32800).
cell((8,10), 32800).
cell((8,11), 0).
cell((8,12), 0).
cell((8,13), 0).
cell((8,14), 0).

cell((9,0), 32800).
cell((9,1), 32800).
cell((9,2), 0).
cell((9,3), 0).
cell((9,4), 0).
cell((9,5), 0).
cell((9,6), 0).
cell((9,7), 0).
cell((9,8), 0).
cell((9,9), 32800).
cell((9,10), 32800).
cell((9,11), 0).
cell((9,12), 0).
cell((9,13), 0).
cell((9,14), 0).

cell((10,0), 72).
cell((10,1), 37408).
cell((10,2), 0).
cell((10,3), 0).
cell((10,4), 0).
cell((10,5), 0).
cell((10,6), 0).
cell((10,7), 0).
cell((10,8), 0).
cell((10,9), 49186).
cell((10,10), 2064).
cell((10,11), 0).
cell((10,12), 0).
cell((10,13), 0).
cell((10,14), 0).

cell((11,0), 0).
cell((11,1), 32800).
cell((11,2), 0).
cell((11,3), 0).
cell((11,4), 0).
cell((11,5), 0).
cell((11,6), 0).
cell((11,7), 0).
cell((11,8), 0).
cell((11,9), 32800).
cell((11,10), 0).
cell((11,11), 0).
cell((11,12), 0).
cell((11,13), 0).
cell((11,14), 0).

cell((12,0), 0).
cell((12,1), 32800).
cell((12,2), 0).
cell((12,3), 0).
cell((12,4), 0).
cell((12,5), 0).
cell((12,6), 0).
cell((12,7), 0).
cell((12,8), 0).
cell((12,9), 32800).
cell((12,10), 0).
cell((12,11), 0).
cell((12,12), 0).
cell((12,13), 0).
cell((12,14), 0).

cell((13,0), 0).
cell((13,1), 32800).
cell((13,2), 0).
cell((13,3), 0).
cell((13,4), 0).
cell((13,5), 0).
cell((13,6), 0).
cell((13,7), 0).
cell((13,8), 0).
cell((13,9), 32800).
cell((13,10), 0).
cell((13,11), 0).
cell((13,12), 0).
cell((13,13), 0).
cell((13,14), 0).

cell((14,0), 0).
cell((14,1), 32800).
cell((14,2), 0).
cell((14,3), 0).
cell((14,4), 0).
cell((14,5), 0).
cell((14,6), 0).
cell((14,7), 0).
cell((14,8), 0).
cell((14,9), 32800).
cell((14,10), 0).
cell((14,11), 0).
cell((14,12), 0).
cell((14,13), 0).
cell((14,14), 0).

cell((15,0), 0).
cell((15,1), 72).
cell((15,2), 1025).
cell((15,3), 5633).
cell((15,4), 17411).
cell((15,5), 1025).
cell((15,6), 5633).
cell((15,7), 17411).
cell((15,8), 1025).
cell((15,9), 2064).
cell((15,10), 0).
cell((15,11), 0).
cell((15,12), 0).
cell((15,13), 0).
cell((15,14), 0).

cell((16,0), 0).
cell((16,1), 0).
cell((16,2), 0).
cell((16,3), 72).
cell((16,4), 3089).
cell((16,5), 1025).
cell((16,6), 1097).
cell((16,7), 2064).
cell((16,8), 0).
cell((16,9), 0).
cell((16,10), 0).
cell((16,11), 0).
cell((16,12), 0).
cell((16,13), 0).
cell((16,14), 0).

cell((17,0), 0).
cell((17,1), 0).
cell((17,2), 0).
cell((17,3), 0).
cell((17,4), 0).
cell((17,5), 0).
cell((17,6), 0).
cell((17,7), 0).
cell((17,8), 0).
cell((17,9), 0).
cell((17,10), 0).
cell((17,11), 0).
cell((17,12), 0).
cell((17,13), 0).
cell((17,14), 0).

cell((18,0), 0).
cell((18,1), 0).
cell((18,2), 0).
cell((18,3), 0).
cell((18,4), 0).
cell((18,5), 0).
cell((18,6), 0).
cell((18,7), 0).
cell((18,8), 0).
cell((18,9), 0).
cell((18,10), 0).
cell((18,11), 0).
cell((18,12), 0).
cell((18,13), 0).
cell((18,14), 0).

cell((19,0), 0).
cell((19,1), 0).
cell((19,2), 0).
cell((19,3), 0).
cell((19,4), 0).
cell((19,5), 0).
cell((19,6), 0).
cell((19,7), 0).
cell((19,8), 0).
cell((19,9), 0).
cell((19,10), 0).
cell((19,11), 0).
cell((19,12), 0).
cell((19,13), 0).
cell((19,14), 0).

