% clingo representation of a Flatland environment
% height: 25, width: 40, agents: 5

global(70).

train(0). start(0,(18,7),6,e). end(0,(5,21),66). speed(0,1).

train(1). start(1,(4,21),1,e). end(1,(19,7),61). speed(1,1).

train(2). start(2,(6,10),2,e). end(2,(20,17),64). speed(2,1).

train(3). start(3,(19,17),17,w). end(3,(7,10),64). speed(3,1).

train(4). start(4,(19,17),10,e). end(4,(5,21),55). speed(4,1).

cell((0,0), 0).
cell((0,1), 0).
cell((0,2), 0).
cell((0,3), 0).
cell((0,4), 0).
cell((0,5), 0).
cell((0,6), 0).
cell((0,7), 0).
cell((0,8), 0).
cell((0,9), 0).
cell((0,10), 0).
cell((0,11), 0).
cell((0,12), 0).
cell((0,13), 0).
cell((0,14), 0).
cell((0,15), 0).
cell((0,16), 0).
cell((0,17), 0).
cell((0,18), 0).
cell((0,19), 0).
cell((0,20), 0).
cell((0,21), 0).
cell((0,22), 0).
cell((0,23), 0).
cell((0,24), 0).
cell((0,25), 0).
cell((0,26), 0).
cell((0,27), 0).
cell((0,28), 0).
cell((0,29), 0).
cell((0,30), 0).
cell((0,31), 0).
cell((0,32), 0).
cell((0,33), 0).
cell((0,34), 0).
cell((0,35), 0).
cell((0,36), 0).
cell((0,37), 0).
cell((0,38), 0).
cell((0,39), 0).

cell((1,0), 0).
cell((1,1), 0).
cell((1,2), 0).
cell((1,3), 0).
cell((1,4), 0).
cell((1,5), 0).
cell((1,6), 0).
cell((1,7), 0).
cell((1,8), 0).
cell((1,9), 0).
cell((1,10), 0).
cell((1,11), 0).
cell((1,12), 0).
cell((1,13), 0).
cell((1,14), 0).
cell((1,15), 0).
cell((1,16), 0).
cell((1,17), 0).
cell((1,18), 0).
cell((1,19), 0).
cell((1,20), 0).
cell((1,21), 0).
cell((1,22), 0).
cell((1,23), 0).
cell((1,24), 0).
cell((1,25), 0).
cell((1,26), 0).
cell((1,27), 0).
cell((1,28), 0).
cell((1,29), 0).
cell((1,30), 0).
cell((1,31), 0).
cell((1,32), 0).
cell((1,33), 0).
cell((1,34), 0).
cell((1,35), 0).
cell((1,36), 0).
cell((1,37), 0).
cell((1,38), 0).
cell((1,39), 0).

cell((2,0), 0).
cell((2,1), 0).
cell((2,2), 0).
cell((2,3), 0).
cell((2,4), 0).
cell((2,5), 0).
cell((2,6), 0).
cell((2,7), 0).
cell((2,8), 0).
cell((2,9), 0).
cell((2,10), 0).
cell((2,11), 0).
cell((2,12), 0).
cell((2,13), 0).
cell((2,14), 0).
cell((2,15), 0).
cell((2,16), 0).
cell((2,17), 0).
cell((2,18), 0).
cell((2,19), 0).
cell((2,20), 0).
cell((2,21), 0).
cell((2,22), 0).
cell((2,23), 0).
cell((2,24), 0).
cell((2,25), 0).
cell((2,26), 0).
cell((2,27), 0).
cell((2,28), 0).
cell((2,29), 0).
cell((2,30), 0).
cell((2,31), 0).
cell((2,32), 0).
cell((2,33), 0).
cell((2,34), 0).
cell((2,35), 0).
cell((2,36), 0).
cell((2,37), 0).
cell((2,38), 0).
cell((2,39), 0).

cell((3,0), 0).
cell((3,1), 0).
cell((3,2), 0).
cell((3,3), 0).
cell((3,4), 0).
cell((3,5), 0).
cell((3,6), 0).
cell((3,7), 0).
cell((3,8), 0).
cell((3,9), 0).
cell((3,10), 0).
cell((3,11), 0).
cell((3,12), 0).
cell((3,13), 0).
cell((3,14), 0).
cell((3,15), 0).
cell((3,16), 0).
cell((3,17), 0).
cell((3,18), 0).
cell((3,19), 0).
cell((3,20), 0).
cell((3,21), 0).
cell((3,22), 0).
cell((3,23), 0).
cell((3,24), 0).
cell((3,25), 0).
cell((3,26), 0).
cell((3,27), 0).
cell((3,28), 0).
cell((3,29), 0).
cell((3,30), 0).
cell((3,31), 0).
cell((3,32), 0).
cell((3,33), 0).
cell((3,34), 0).
cell((3,35), 0).
cell((3,36), 0).
cell((3,37), 0).
cell((3,38), 0).
cell((3,39), 0).

cell((4,0), 0).
cell((4,1), 0).
cell((4,2), 0).
cell((4,3), 0).
cell((4,4), 0).
cell((4,5), 0).
cell((4,6), 0).
cell((4,7), 0).
cell((4,8), 0).
cell((4,9), 0).
cell((4,10), 0).
cell((4,11), 0).
cell((4,12), 0).
cell((4,13), 0).
cell((4,14), 16386).
cell((4,15), 1025).
cell((4,16), 1025).
cell((4,17), 17411).
cell((4,18), 1025).
cell((4,19), 5633).
cell((4,20), 17411).
cell((4,21), 1025).
cell((4,22), 5633).
cell((4,23), 17411).
cell((4,24), 1025).
cell((4,25), 4608).
cell((4,26), 0).
cell((4,27), 0).
cell((4,28), 0).
cell((4,29), 0).
cell((4,30), 0).
cell((4,31), 0).
cell((4,32), 0).
cell((4,33), 0).
cell((4,34), 0).
cell((4,35), 0).
cell((4,36), 0).
cell((4,37), 0).
cell((4,38), 0).
cell((4,39), 0).

cell((5,0), 0).
cell((5,1), 0).
cell((5,2), 0).
cell((5,3), 0).
cell((5,4), 0).
cell((5,5), 0).
cell((5,6), 0).
cell((5,7), 0).
cell((5,8), 0).
cell((5,9), 0).
cell((5,10), 0).
cell((5,11), 0).
cell((5,12), 0).
cell((5,13), 0).
cell((5,14), 32800).
cell((5,15), 0).
cell((5,16), 0).
cell((5,17), 32800).
cell((5,18), 0).
cell((5,19), 72).
cell((5,20), 3089).
cell((5,21), 1025).
cell((5,22), 1097).
cell((5,23), 2064).
cell((5,24), 0).
cell((5,25), 32800).
cell((5,26), 0).
cell((5,27), 0).
cell((5,28), 0).
cell((5,29), 0).
cell((5,30), 0).
cell((5,31), 0).
cell((5,32), 0).
cell((5,33), 0).
cell((5,34), 0).
cell((5,35), 0).
cell((5,36), 0).
cell((5,37), 0).
cell((5,38), 0).
cell((5,39), 0).

cell((6,0), 0).
cell((6,1), 0).
cell((6,2), 0).
cell((6,3), 0).
cell((6,4), 0).
cell((6,5), 16386).
cell((6,6), 17411).
cell((6,7), 1025).
cell((6,8), 5633).
cell((6,9), 17411).
cell((6,10), 1025).
cell((6,11), 5633).
cell((6,12), 17411).
cell((6,13), 1025).
cell((6,14), 3089).
cell((6,15), 1025).
cell((6,16), 1025).
cell((6,17), 34864).
cell((6,18), 0).
cell((6,19), 0).
cell((6,20), 0).
cell((6,21), 0).
cell((6,22), 0).
cell((6,23), 0).
cell((6,24), 0).
cell((6,25), 32800).
cell((6,26), 0).
cell((6,27), 0).
cell((6,28), 0).
cell((6,29), 0).
cell((6,30), 0).
cell((6,31), 0).
cell((6,32), 0).
cell((6,33), 0).
cell((6,34), 0).
cell((6,35), 0).
cell((6,36), 0).
cell((6,37), 0).
cell((6,38), 0).
cell((6,39), 0).

cell((7,0), 0).
cell((7,1), 0).
cell((7,2), 0).
cell((7,3), 0).
cell((7,4), 0).
cell((7,5), 32800).
cell((7,6), 32800).
cell((7,7), 0).
cell((7,8), 72).
cell((7,9), 3089).
cell((7,10), 1025).
cell((7,11), 1097).
cell((7,12), 2064).
cell((7,13), 0).
cell((7,14), 0).
cell((7,15), 0).
cell((7,16), 0).
cell((7,17), 32800).
cell((7,18), 0).
cell((7,19), 0).
cell((7,20), 0).
cell((7,21), 0).
cell((7,22), 0).
cell((7,23), 0).
cell((7,24), 0).
cell((7,25), 32800).
cell((7,26), 0).
cell((7,27), 0).
cell((7,28), 0).
cell((7,29), 0).
cell((7,30), 0).
cell((7,31), 0).
cell((7,32), 0).
cell((7,33), 0).
cell((7,34), 0).
cell((7,35), 0).
cell((7,36), 0).
cell((7,37), 0).
cell((7,38), 0).
cell((7,39), 0).

cell((8,0), 0).
cell((8,1), 0).
cell((8,2), 0).
cell((8,3), 0).
cell((8,4), 0).
cell((8,5), 32800).
cell((8,6), 32800).
cell((8,7), 0).
cell((8,8), 0).
cell((8,9), 0).
cell((8,10), 0).
cell((8,11), 0).
cell((8,12), 0).
cell((8,13), 0).
cell((8,14), 0).
cell((8,15), 0).
cell((8,16), 0).
cell((8,17), 72).
cell((8,18), 4608).
cell((8,19), 0).
cell((8,20), 0).
cell((8,21), 0).
cell((8,22), 16386).
cell((8,23), 1025).
cell((8,24), 1025).
cell((8,25), 2064).
cell((8,26), 0).
cell((8,27), 0).
cell((8,28), 0).
cell((8,29), 0).
cell((8,30), 0).
cell((8,31), 0).
cell((8,32), 0).
cell((8,33), 0).
cell((8,34), 0).
cell((8,35), 0).
cell((8,36), 0).
cell((8,37), 0).
cell((8,38), 0).
cell((8,39), 0).

cell((9,0), 0).
cell((9,1), 0).
cell((9,2), 0).
cell((9,3), 0).
cell((9,4), 0).
cell((9,5), 32800).
cell((9,6), 32800).
cell((9,7), 0).
cell((9,8), 0).
cell((9,9), 0).
cell((9,10), 0).
cell((9,11), 0).
cell((9,12), 0).
cell((9,13), 0).
cell((9,14), 0).
cell((9,15), 0).
cell((9,16), 0).
cell((9,17), 0).
cell((9,18), 32800).
cell((9,19), 0).
cell((9,20), 0).
cell((9,21), 0).
cell((9,22), 32800).
cell((9,23), 0).
cell((9,24), 0).
cell((9,25), 0).
cell((9,26), 0).
cell((9,27), 0).
cell((9,28), 0).
cell((9,29), 0).
cell((9,30), 0).
cell((9,31), 0).
cell((9,32), 0).
cell((9,33), 0).
cell((9,34), 0).
cell((9,35), 0).
cell((9,36), 0).
cell((9,37), 0).
cell((9,38), 0).
cell((9,39), 0).

cell((10,0), 0).
cell((10,1), 0).
cell((10,2), 0).
cell((10,3), 0).
cell((10,4), 0).
cell((10,5), 32800).
cell((10,6), 72).
cell((10,7), 1025).
cell((10,8), 1025).
cell((10,9), 1025).
cell((10,10), 4608).
cell((10,11), 0).
cell((10,12), 0).
cell((10,13), 0).
cell((10,14), 0).
cell((10,15), 0).
cell((10,16), 0).
cell((10,17), 0).
cell((10,18), 32800).
cell((10,19), 0).
cell((10,20), 0).
cell((10,21), 0).
cell((10,22), 32800).
cell((10,23), 0).
cell((10,24), 0).
cell((10,25), 0).
cell((10,26), 0).
cell((10,27), 0).
cell((10,28), 0).
cell((10,29), 0).
cell((10,30), 0).
cell((10,31), 0).
cell((10,32), 0).
cell((10,33), 0).
cell((10,34), 0).
cell((10,35), 0).
cell((10,36), 0).
cell((10,37), 0).
cell((10,38), 0).
cell((10,39), 0).

cell((11,0), 0).
cell((11,1), 0).
cell((11,2), 0).
cell((11,3), 0).
cell((11,4), 0).
cell((11,5), 32800).
cell((11,6), 0).
cell((11,7), 0).
cell((11,8), 0).
cell((11,9), 0).
cell((11,10), 32800).
cell((11,11), 0).
cell((11,12), 0).
cell((11,13), 0).
cell((11,14), 0).
cell((11,15), 0).
cell((11,16), 0).
cell((11,17), 0).
cell((11,18), 32800).
cell((11,19), 0).
cell((11,20), 0).
cell((11,21), 0).
cell((11,22), 32800).
cell((11,23), 0).
cell((11,24), 0).
cell((11,25), 0).
cell((11,26), 0).
cell((11,27), 0).
cell((11,28), 0).
cell((11,29), 0).
cell((11,30), 0).
cell((11,31), 0).
cell((11,32), 0).
cell((11,33), 0).
cell((11,34), 0).
cell((11,35), 0).
cell((11,36), 0).
cell((11,37), 0).
cell((11,38), 0).
cell((11,39), 0).

cell((12,0), 0).
cell((12,1), 0).
cell((12,2), 0).
cell((12,3), 0).
cell((12,4), 0).
cell((12,5), 32800).
cell((12,6), 0).
cell((12,7), 0).
cell((12,8), 0).
cell((12,9), 0).
cell((12,10), 32800).
cell((12,11), 0).
cell((12,12), 0).
cell((12,13), 0).
cell((12,14), 0).
cell((12,15), 0).
cell((12,16), 0).
cell((12,17), 0).
cell((12,18), 32800).
cell((12,19), 0).
cell((12,20), 0).
cell((12,21), 0).
cell((12,22), 32800).
cell((12,23), 0).
cell((12,24), 0).
cell((12,25), 0).
cell((12,26), 0).
cell((12,27), 0).
cell((12,28), 0).
cell((12,29), 0).
cell((12,30), 0).
cell((12,31), 0).
cell((12,32), 0).
cell((12,33), 0).
cell((12,34), 0).
cell((12,35), 0).
cell((12,36), 0).
cell((12,37), 0).
cell((12,38), 0).
cell((12,39), 0).

cell((13,0), 0).
cell((13,1), 0).
cell((13,2), 0).
cell((13,3), 0).
cell((13,4), 0).
cell((13,5), 32800).
cell((13,6), 0).
cell((13,7), 0).
cell((13,8), 0).
cell((13,9), 0).
cell((13,10), 32800).
cell((13,11), 0).
cell((13,12), 0).
cell((13,13), 0).
cell((13,14), 0).
cell((13,15), 0).
cell((13,16), 0).
cell((13,17), 0).
cell((13,18), 32800).
cell((13,19), 0).
cell((13,20), 0).
cell((13,21), 0).
cell((13,22), 32800).
cell((13,23), 0).
cell((13,24), 0).
cell((13,25), 0).
cell((13,26), 0).
cell((13,27), 0).
cell((13,28), 0).
cell((13,29), 0).
cell((13,30), 0).
cell((13,31), 0).
cell((13,32), 0).
cell((13,33), 0).
cell((13,34), 0).
cell((13,35), 0).
cell((13,36), 0).
cell((13,37), 0).
cell((13,38), 0).
cell((13,39), 0).

cell((14,0), 0).
cell((14,1), 0).
cell((14,2), 0).
cell((14,3), 16386).
cell((14,4), 1025).
cell((14,5), 2064).
cell((14,6), 0).
cell((14,7), 0).
cell((14,8), 0).
cell((14,9), 0).
cell((14,10), 72).
cell((14,11), 4608).
cell((14,12), 0).
cell((14,13), 0).
cell((14,14), 0).
cell((14,15), 0).
cell((14,16), 0).
cell((14,17), 0).
cell((14,18), 32800).
cell((14,19), 0).
cell((14,20), 0).
cell((14,21), 0).
cell((14,22), 32800).
cell((14,23), 0).
cell((14,24), 0).
cell((14,25), 0).
cell((14,26), 0).
cell((14,27), 0).
cell((14,28), 0).
cell((14,29), 0).
cell((14,30), 0).
cell((14,31), 0).
cell((14,32), 0).
cell((14,33), 0).
cell((14,34), 0).
cell((14,35), 0).
cell((14,36), 0).
cell((14,37), 0).
cell((14,38), 0).
cell((14,39), 0).

cell((15,0), 0).
cell((15,1), 0).
cell((15,2), 0).
cell((15,3), 32800).
cell((15,4), 0).
cell((15,5), 0).
cell((15,6), 0).
cell((15,7), 0).
cell((15,8), 0).
cell((15,9), 0).
cell((15,10), 0).
cell((15,11), 32800).
cell((15,12), 0).
cell((15,13), 0).
cell((15,14), 0).
cell((15,15), 0).
cell((15,16), 0).
cell((15,17), 0).
cell((15,18), 72).
cell((15,19), 1025).
cell((15,20), 1025).
cell((15,21), 4608).
cell((15,22), 32800).
cell((15,23), 0).
cell((15,24), 0).
cell((15,25), 0).
cell((15,26), 0).
cell((15,27), 0).
cell((15,28), 0).
cell((15,29), 0).
cell((15,30), 0).
cell((15,31), 0).
cell((15,32), 0).
cell((15,33), 0).
cell((15,34), 0).
cell((15,35), 0).
cell((15,36), 0).
cell((15,37), 0).
cell((15,38), 0).
cell((15,39), 0).

cell((16,0), 0).
cell((16,1), 0).
cell((16,2), 0).
cell((16,3), 32800).
cell((16,4), 0).
cell((16,5), 0).
cell((16,6), 0).
cell((16,7), 0).
cell((16,8), 0).
cell((16,9), 0).
cell((16,10), 0).
cell((16,11), 32800).
cell((16,12), 0).
cell((16,13), 0).
cell((16,14), 0).
cell((16,15), 0).
cell((16,16), 0).
cell((16,17), 0).
cell((16,18), 0).
cell((16,19), 0).
cell((16,20), 0).
cell((16,21), 32800).
cell((16,22), 32800).
cell((16,23), 0).
cell((16,24), 0).
cell((16,25), 0).
cell((16,26), 0).
cell((16,27), 0).
cell((16,28), 0).
cell((16,29), 0).
cell((16,30), 0).
cell((16,31), 0).
cell((16,32), 0).
cell((16,33), 0).
cell((16,34), 0).
cell((16,35), 0).
cell((16,36), 0).
cell((16,37), 0).
cell((16,38), 0).
cell((16,39), 0).

cell((17,0), 0).
cell((17,1), 0).
cell((17,2), 0).
cell((17,3), 32800).
cell((17,4), 0).
cell((17,5), 0).
cell((17,6), 0).
cell((17,7), 0).
cell((17,8), 0).
cell((17,9), 0).
cell((17,10), 0).
cell((17,11), 32800).
cell((17,12), 0).
cell((17,13), 0).
cell((17,14), 0).
cell((17,15), 0).
cell((17,16), 0).
cell((17,17), 0).
cell((17,18), 0).
cell((17,19), 0).
cell((17,20), 0).
cell((17,21), 32800).
cell((17,22), 32800).
cell((17,23), 0).
cell((17,24), 0).
cell((17,25), 0).
cell((17,26), 0).
cell((17,27), 0).
cell((17,28), 0).
cell((17,29), 0).
cell((17,30), 0).
cell((17,31), 0).
cell((17,32), 0).
cell((17,33), 0).
cell((17,34), 0).
cell((17,35), 0).
cell((17,36), 0).
cell((17,37), 0).
cell((17,38), 0).
cell((17,39), 0).

cell((18,0), 0).
cell((18,1), 0).
cell((18,2), 0).
cell((18,3), 72).
cell((18,4), 1025).
cell((18,5), 5633).
cell((18,6), 17411).
cell((18,7), 1025).
cell((18,8), 5633).
cell((18,9), 17411).
cell((18,10), 1025).
cell((18,11), 52275).
cell((18,12), 1025).
cell((18,13), 4608).
cell((18,14), 0).
cell((18,15), 0).
cell((18,16), 0).
cell((18,17), 0).
cell((18,18), 0).
cell((18,19), 0).
cell((18,20), 0).
cell((18,21), 32800).
cell((18,22), 32800).
cell((18,23), 0).
cell((18,24), 0).
cell((18,25), 0).
cell((18,26), 0).
cell((18,27), 0).
cell((18,28), 0).
cell((18,29), 0).
cell((18,30), 0).
cell((18,31), 0).
cell((18,32), 0).
cell((18,33), 0).
cell((18,34), 0).
cell((18,35), 0).
cell((18,36), 0).
cell((18,37), 0).
cell((18,38), 0).
cell((18,39), 0).

cell((19,0), 0).
cell((19,1), 0).
cell((19,2), 0).
cell((19,3), 0).
cell((19,4), 0).
cell((19,5), 72).
cell((19,6), 3089).
cell((19,7), 1025).
cell((19,8), 1097).
cell((19,9), 2064).
cell((19,10), 0).
cell((19,11), 72).
cell((19,12), 1025).
cell((19,13), 1097).
cell((19,14), 1025).
cell((19,15), 5633).
cell((19,16), 17411).
cell((19,17), 1025).
cell((19,18), 5633).
cell((19,19), 17411).
cell((19,20), 1025).
cell((19,21), 3089).
cell((19,22), 2064).
cell((19,23), 0).
cell((19,24), 0).
cell((19,25), 0).
cell((19,26), 0).
cell((19,27), 0).
cell((19,28), 0).
cell((19,29), 0).
cell((19,30), 0).
cell((19,31), 0).
cell((19,32), 0).
cell((19,33), 0).
cell((19,34), 0).
cell((19,35), 0).
cell((19,36), 0).
cell((19,37), 0).
cell((19,38), 0).
cell((19,39), 0).

cell((20,0), 0).
cell((20,1), 0).
cell((20,2), 0).
cell((20,3), 0).
cell((20,4), 0).
cell((20,5), 0).
cell((20,6), 0).
cell((20,7), 0).
cell((20,8), 0).
cell((20,9), 0).
cell((20,10), 0).
cell((20,11), 0).
cell((20,12), 0).
cell((20,13), 0).
cell((20,14), 0).
cell((20,15), 72).
cell((20,16), 3089).
cell((20,17), 1025).
cell((20,18), 1097).
cell((20,19), 2064).
cell((20,20), 0).
cell((20,21), 0).
cell((20,22), 0).
cell((20,23), 0).
cell((20,24), 0).
cell((20,25), 0).
cell((20,26), 0).
cell((20,27), 0).
cell((20,28), 0).
cell((20,29), 0).
cell((20,30), 0).
cell((20,31), 0).
cell((20,32), 0).
cell((20,33), 0).
cell((20,34), 0).
cell((20,35), 0).
cell((20,36), 0).
cell((20,37), 0).
cell((20,38), 0).
cell((20,39), 0).

cell((21,0), 0).
cell((21,1), 0).
cell((21,2), 0).
cell((21,3), 0).
cell((21,4), 0).
cell((21,5), 0).
cell((21,6), 0).
cell((21,7), 0).
cell((21,8), 0).
cell((21,9), 0).
cell((21,10), 0).
cell((21,11), 0).
cell((21,12), 0).
cell((21,13), 0).
cell((21,14), 0).
cell((21,15), 0).
cell((21,16), 0).
cell((21,17), 0).
cell((21,18), 0).
cell((21,19), 0).
cell((21,20), 0).
cell((21,21), 0).
cell((21,22), 0).
cell((21,23), 0).
cell((21,24), 0).
cell((21,25), 0).
cell((21,26), 0).
cell((21,27), 0).
cell((21,28), 0).
cell((21,29), 0).
cell((21,30), 0).
cell((21,31), 0).
cell((21,32), 0).
cell((21,33), 0).
cell((21,34), 0).
cell((21,35), 0).
cell((21,36), 0).
cell((21,37), 0).
cell((21,38), 0).
cell((21,39), 0).

cell((22,0), 0).
cell((22,1), 0).
cell((22,2), 0).
cell((22,3), 0).
cell((22,4), 0).
cell((22,5), 0).
cell((22,6), 0).
cell((22,7), 0).
cell((22,8), 0).
cell((22,9), 0).
cell((22,10), 0).
cell((22,11), 0).
cell((22,12), 0).
cell((22,13), 0).
cell((22,14), 0).
cell((22,15), 0).
cell((22,16), 0).
cell((22,17), 0).
cell((22,18), 0).
cell((22,19), 0).
cell((22,20), 0).
cell((22,21), 0).
cell((22,22), 0).
cell((22,23), 0).
cell((22,24), 0).
cell((22,25), 0).
cell((22,26), 0).
cell((22,27), 0).
cell((22,28), 0).
cell((22,29), 0).
cell((22,30), 0).
cell((22,31), 0).
cell((22,32), 0).
cell((22,33), 0).
cell((22,34), 0).
cell((22,35), 0).
cell((22,36), 0).
cell((22,37), 0).
cell((22,38), 0).
cell((22,39), 0).

cell((23,0), 0).
cell((23,1), 0).
cell((23,2), 0).
cell((23,3), 0).
cell((23,4), 0).
cell((23,5), 0).
cell((23,6), 0).
cell((23,7), 0).
cell((23,8), 0).
cell((23,9), 0).
cell((23,10), 0).
cell((23,11), 0).
cell((23,12), 0).
cell((23,13), 0).
cell((23,14), 0).
cell((23,15), 0).
cell((23,16), 0).
cell((23,17), 0).
cell((23,18), 0).
cell((23,19), 0).
cell((23,20), 0).
cell((23,21), 0).
cell((23,22), 0).
cell((23,23), 0).
cell((23,24), 0).
cell((23,25), 0).
cell((23,26), 0).
cell((23,27), 0).
cell((23,28), 0).
cell((23,29), 0).
cell((23,30), 0).
cell((23,31), 0).
cell((23,32), 0).
cell((23,33), 0).
cell((23,34), 0).
cell((23,35), 0).
cell((23,36), 0).
cell((23,37), 0).
cell((23,38), 0).
cell((23,39), 0).

cell((24,0), 0).
cell((24,1), 0).
cell((24,2), 0).
cell((24,3), 0).
cell((24,4), 0).
cell((24,5), 0).
cell((24,6), 0).
cell((24,7), 0).
cell((24,8), 0).
cell((24,9), 0).
cell((24,10), 0).
cell((24,11), 0).
cell((24,12), 0).
cell((24,13), 0).
cell((24,14), 0).
cell((24,15), 0).
cell((24,16), 0).
cell((24,17), 0).
cell((24,18), 0).
cell((24,19), 0).
cell((24,20), 0).
cell((24,21), 0).
cell((24,22), 0).
cell((24,23), 0).
cell((24,24), 0).
cell((24,25), 0).
cell((24,26), 0).
cell((24,27), 0).
cell((24,28), 0).
cell((24,29), 0).
cell((24,30), 0).
cell((24,31), 0).
cell((24,32), 0).
cell((24,33), 0).
cell((24,34), 0).
cell((24,35), 0).
cell((24,36), 0).
cell((24,37), 0).
cell((24,38), 0).
cell((24,39), 0).

