% clingo representation of a Flatland environment
% height: 20, width: 20, agents: 3

global(42).

train(0). start(0,(13,10),1,s). end(0,(4,13),38). speed(0,1).

train(1). start(1,(4,12),2,n). end(1,(13,11),39). speed(1,1).

train(2). start(2,(13,10),6,n). end(2,(4,13),28). speed(2,1).

cell((0,0), 0).
cell((0,1), 0).
cell((0,2), 0).
cell((0,3), 0).
cell((0,4), 0).
cell((0,5), 0).
cell((0,6), 0).
cell((0,7), 0).
cell((0,8), 16386).
cell((0,9), 1025).
cell((0,10), 1025).
cell((0,11), 1025).
cell((0,12), 4608).
cell((0,13), 0).
cell((0,14), 0).
cell((0,15), 0).
cell((0,16), 0).
cell((0,17), 0).
cell((0,18), 0).
cell((0,19), 0).

cell((1,0), 0).
cell((1,1), 0).
cell((1,2), 0).
cell((1,3), 0).
cell((1,4), 0).
cell((1,5), 0).
cell((1,6), 0).
cell((1,7), 0).
cell((1,8), 32800).
cell((1,9), 0).
cell((1,10), 0).
cell((1,11), 0).
cell((1,12), 32800).
cell((1,13), 0).
cell((1,14), 0).
cell((1,15), 0).
cell((1,16), 0).
cell((1,17), 0).
cell((1,18), 0).
cell((1,19), 0).

cell((2,0), 0).
cell((2,1), 0).
cell((2,2), 0).
cell((2,3), 0).
cell((2,4), 0).
cell((2,5), 0).
cell((2,6), 0).
cell((2,7), 0).
cell((2,8), 32800).
cell((2,9), 0).
cell((2,10), 0).
cell((2,11), 0).
cell((2,12), 32872).
cell((2,13), 4608).
cell((2,14), 0).
cell((2,15), 0).
cell((2,16), 0).
cell((2,17), 0).
cell((2,18), 0).
cell((2,19), 0).

cell((3,0), 0).
cell((3,1), 0).
cell((3,2), 0).
cell((3,3), 0).
cell((3,4), 0).
cell((3,5), 0).
cell((3,6), 0).
cell((3,7), 0).
cell((3,8), 32800).
cell((3,9), 0).
cell((3,10), 0).
cell((3,11), 0).
cell((3,12), 49186).
cell((3,13), 34864).
cell((3,14), 0).
cell((3,15), 0).
cell((3,16), 0).
cell((3,17), 0).
cell((3,18), 0).
cell((3,19), 0).

cell((4,0), 0).
cell((4,1), 0).
cell((4,2), 0).
cell((4,3), 0).
cell((4,4), 0).
cell((4,5), 0).
cell((4,6), 0).
cell((4,7), 0).
cell((4,8), 32800).
cell((4,9), 0).
cell((4,10), 0).
cell((4,11), 0).
cell((4,12), 32800).
cell((4,13), 32800).
cell((4,14), 0).
cell((4,15), 0).
cell((4,16), 0).
cell((4,17), 0).
cell((4,18), 0).
cell((4,19), 0).

cell((5,0), 0).
cell((5,1), 0).
cell((5,2), 0).
cell((5,3), 0).
cell((5,4), 0).
cell((5,5), 0).
cell((5,6), 0).
cell((5,7), 0).
cell((5,8), 32800).
cell((5,9), 0).
cell((5,10), 0).
cell((5,11), 0).
cell((5,12), 32872).
cell((5,13), 37408).
cell((5,14), 0).
cell((5,15), 0).
cell((5,16), 0).
cell((5,17), 0).
cell((5,18), 0).
cell((5,19), 0).

cell((6,0), 0).
cell((6,1), 0).
cell((6,2), 0).
cell((6,3), 0).
cell((6,4), 0).
cell((6,5), 0).
cell((6,6), 0).
cell((6,7), 0).
cell((6,8), 32800).
cell((6,9), 0).
cell((6,10), 0).
cell((6,11), 0).
cell((6,12), 49186).
cell((6,13), 2064).
cell((6,14), 0).
cell((6,15), 0).
cell((6,16), 0).
cell((6,17), 0).
cell((6,18), 0).
cell((6,19), 0).

cell((7,0), 0).
cell((7,1), 0).
cell((7,2), 0).
cell((7,3), 0).
cell((7,4), 0).
cell((7,5), 0).
cell((7,6), 0).
cell((7,7), 0).
cell((7,8), 32800).
cell((7,9), 0).
cell((7,10), 0).
cell((7,11), 0).
cell((7,12), 32800).
cell((7,13), 0).
cell((7,14), 0).
cell((7,15), 0).
cell((7,16), 0).
cell((7,17), 0).
cell((7,18), 0).
cell((7,19), 0).

cell((8,0), 0).
cell((8,1), 0).
cell((8,2), 0).
cell((8,3), 0).
cell((8,4), 0).
cell((8,5), 0).
cell((8,6), 0).
cell((8,7), 0).
cell((8,8), 72).
cell((8,9), 1025).
cell((8,10), 1025).
cell((8,11), 4608).
cell((8,12), 32872).
cell((8,13), 5633).
cell((8,14), 4608).
cell((8,15), 0).
cell((8,16), 0).
cell((8,17), 0).
cell((8,18), 0).
cell((8,19), 0).

cell((9,0), 0).
cell((9,1), 0).
cell((9,2), 0).
cell((9,3), 0).
cell((9,4), 0).
cell((9,5), 0).
cell((9,6), 0).
cell((9,7), 0).
cell((9,8), 0).
cell((9,9), 0).
cell((9,10), 16386).
cell((9,11), 50211).
cell((9,12), 2064).
cell((9,13), 72).
cell((9,14), 37408).
cell((9,15), 0).
cell((9,16), 0).
cell((9,17), 0).
cell((9,18), 0).
cell((9,19), 0).

cell((10,0), 0).
cell((10,1), 0).
cell((10,2), 0).
cell((10,3), 0).
cell((10,4), 0).
cell((10,5), 0).
cell((10,6), 0).
cell((10,7), 0).
cell((10,8), 0).
cell((10,9), 0).
cell((10,10), 32800).
cell((10,11), 32800).
cell((10,12), 0).
cell((10,13), 0).
cell((10,14), 32800).
cell((10,15), 0).
cell((10,16), 0).
cell((10,17), 0).
cell((10,18), 0).
cell((10,19), 0).

cell((11,0), 0).
cell((11,1), 0).
cell((11,2), 0).
cell((11,3), 0).
cell((11,4), 0).
cell((11,5), 0).
cell((11,6), 0).
cell((11,7), 0).
cell((11,8), 0).
cell((11,9), 0).
cell((11,10), 32872).
cell((11,11), 37408).
cell((11,12), 0).
cell((11,13), 0).
cell((11,14), 32800).
cell((11,15), 0).
cell((11,16), 0).
cell((11,17), 0).
cell((11,18), 0).
cell((11,19), 0).

cell((12,0), 0).
cell((12,1), 0).
cell((12,2), 0).
cell((12,3), 0).
cell((12,4), 0).
cell((12,5), 0).
cell((12,6), 0).
cell((12,7), 0).
cell((12,8), 0).
cell((12,9), 0).
cell((12,10), 49186).
cell((12,11), 34864).
cell((12,12), 0).
cell((12,13), 0).
cell((12,14), 32800).
cell((12,15), 0).
cell((12,16), 0).
cell((12,17), 0).
cell((12,18), 0).
cell((12,19), 0).

cell((13,0), 0).
cell((13,1), 0).
cell((13,2), 0).
cell((13,3), 0).
cell((13,4), 0).
cell((13,5), 0).
cell((13,6), 0).
cell((13,7), 0).
cell((13,8), 0).
cell((13,9), 0).
cell((13,10), 32800).
cell((13,11), 32800).
cell((13,12), 0).
cell((13,13), 0).
cell((13,14), 32800).
cell((13,15), 0).
cell((13,16), 0).
cell((13,17), 0).
cell((13,18), 0).
cell((13,19), 0).

cell((14,0), 0).
cell((14,1), 0).
cell((14,2), 0).
cell((14,3), 0).
cell((14,4), 0).
cell((14,5), 0).
cell((14,6), 0).
cell((14,7), 0).
cell((14,8), 0).
cell((14,9), 0).
cell((14,10), 32872).
cell((14,11), 37408).
cell((14,12), 0).
cell((14,13), 0).
cell((14,14), 32800).
cell((14,15), 0).
cell((14,16), 0).
cell((14,17), 0).
cell((14,18), 0).
cell((14,19), 0).

cell((15,0), 0).
cell((15,1), 0).
cell((15,2), 0).
cell((15,3), 0).
cell((15,4), 0).
cell((15,5), 0).
cell((15,6), 0).
cell((15,7), 0).
cell((15,8), 0).
cell((15,9), 0).
cell((15,10), 49186).
cell((15,11), 34864).
cell((15,12), 0).
cell((15,13), 0).
cell((15,14), 32800).
cell((15,15), 0).
cell((15,16), 0).
cell((15,17), 0).
cell((15,18), 0).
cell((15,19), 0).

cell((16,0), 0).
cell((16,1), 0).
cell((16,2), 0).
cell((16,3), 0).
cell((16,4), 0).
cell((16,5), 0).
cell((16,6), 0).
cell((16,7), 0).
cell((16,8), 0).
cell((16,9), 0).
cell((16,10), 32800).
cell((16,11), 32800).
cell((16,12), 0).
cell((16,13), 0).
cell((16,14), 32800).
cell((16,15), 0).
cell((16,16), 0).
cell((16,17), 0).
cell((16,18), 0).
cell((16,19), 0).

cell((17,0), 0).
cell((17,1), 0).
cell((17,2), 0).
cell((17,3), 0).
cell((17,4), 0).
cell((17,5), 0).
cell((17,6), 0).
cell((17,7), 0).
cell((17,8), 0).
cell((17,9), 0).
cell((17,10), 72).
cell((17,11), 1097).
cell((17,12), 1025).
cell((17,13), 1025).
cell((17,14), 2064).
cell((17,15), 0).
cell((17,16), 0).
cell((17,17), 0).
cell((17,18), 0).
cell((17,19), 0).

cell((18,0), 0).
cell((18,1), 0).
cell((18,2), 0).
cell((18,3), 0).
cell((18,4), 0).
cell((18,5), 0).
cell((18,6), 0).
cell((18,7), 0).
cell((18,8), 0).
cell((18,9), 0).
cell((18,10), 0).
cell((18,11), 0).
cell((18,12), 0).
cell((18,13), 0).
cell((18,14), 0).
cell((18,15), 0).
cell((18,16), 0).
cell((18,17), 0).
cell((18,18), 0).
cell((18,19), 0).

cell((19,0), 0).
cell((19,1), 0).
cell((19,2), 0).
cell((19,3), 0).
cell((19,4), 0).
cell((19,5), 0).
cell((19,6), 0).
cell((19,7), 0).
cell((19,8), 0).
cell((19,9), 0).
cell((19,10), 0).
cell((19,11), 0).
cell((19,12), 0).
cell((19,13), 0).
cell((19,14), 0).
cell((19,15), 0).
cell((19,16), 0).
cell((19,17), 0).
cell((19,18), 0).
cell((19,19), 0).

